*SENSE:Maximize
NAME          MODEL
ROWS
 N  OBJ
 L  C0000000
 L  C0000001
 L  C0000002
 L  C0000003
 L  C0000004
 L  C0000005
 L  C0000006
 L  C0000007
 L  C0000008
 L  C0000009
 L  C0000010
 L  C0000011
 L  C0000012
 L  C0000013
 L  C0000014
 L  C0000015
 L  C0000016
 L  C0000017
 L  C0000018
 L  C0000019
 L  C0000020
 L  C0000021
 L  C0000022
 L  C0000023
 L  C0000024
 L  C0000025
 L  C0000026
 L  C0000027
 L  C0000028
 L  C0000029
 L  C0000030
 L  C0000031
 L  C0000032
 L  C0000033
 L  C0000034
 L  C0000035
 L  C0000036
 L  C0000037
 L  C0000038
 L  C0000039
 L  C0000040
 L  C0000041
 L  C0000042
 L  C0000043
 L  C0000044
 L  C0000045
COLUMNS
    X0000000  C0000000   1.000000000000e+00
    X0000000  C0000045   2.208414924214e-01
    X0000000  OBJ        1.340261952000e+03
    X0000001  C0000001   1.000000000000e+00
    X0000001  C0000002   1.000000000000e+00
    X0000001  C0000045   8.896027170693e-03
    X0000001  OBJ        5.398897920000e+01
    X0000002  C0000003   1.000000000000e+00
    X0000002  C0000004   1.000000000000e+00
    X0000002  C0000045   3.232610114680e-02
    X0000002  OBJ        1.961834388480e+02
    X0000003  C0000005   1.000000000000e+00
    X0000003  C0000006   1.000000000000e+00
    X0000003  C0000045   5.001351672653e-03
    X0000003  OBJ        3.035263564800e+01
    X0000004  C0000007   1.000000000000e+00
    X0000004  C0000008   1.000000000000e+00
    X0000004  C0000045   9.909628552756e-03
    X0000004  OBJ        6.014041094400e+01
    X0000005  C0000009   1.000000000000e+00
    X0000005  C0000010   1.000000000000e+00
    X0000005  C0000045   1.492162056422e-01
    X0000005  OBJ        1.706685066240e+02
    X0000006  C0000011   1.000000000000e+00
    X0000006  C0000045   7.505979174507e-01
    X0000006  OBJ        8.585088000000e+02
    X0000007  C0000012   1.000000000000e+00
    X0000007  C0000013   1.000000000000e+00
    X0000007  C0000045   1.242306062057e-02
    X0000007  OBJ        1.420908134400e+01
    X0000008  C0000014   1.000000000000e+00
    X0000008  C0000015   1.000000000000e+00
    X0000008  C0000045   8.777321024358e-02
    X0000008  OBJ        1.003920629760e+02
    X0000009  C0000016   1.000000000000e+00
    X0000009  C0000017   1.000000000000e+00
    X0000009  C0000045   1.653878219382e-01
    X0000009  OBJ        1.891650606080e+02
    X0000010  C0000018   1.000000000000e+00
    X0000010  C0000019   1.000000000000e+00
    X0000010  C0000045   1.101362082458e+01
    X0000010  OBJ        1.377567051840e+02
    X0000011  C0000020   1.000000000000e+00
    X0000011  C0000021   1.000000000000e+00
    X0000011  C0000045   5.868454644000e+00
    X0000011  OBJ        7.340174400000e+01
    X0000012  C0000022   1.000000000000e+00
    X0000012  C0000045   6.226161811200e+01
    X0000012  OBJ        7.787589120000e+02
    X0000013  C0000023   1.000000000000e+00
    X0000013  C0000024   1.000000000000e+00
    X0000013  C0000045   3.592515174192e+00
    X0000013  OBJ        4.493463699200e+01
    X0000014  C0000025   1.000000000000e+00
    X0000014  C0000026   1.000000000000e+00
    X0000014  C0000045   9.690287159448e+00
    X0000014  OBJ        1.212046476480e+02
    X0000015  C0000027   1.000000000000e+00
    X0000015  C0000028   1.000000000000e+00
    X0000015  C0000045   8.917901405878e-02
    X0000015  OBJ        2.411805788160e+02
    X0000016  C0000029   1.000000000000e+00
    X0000016  C0000030   1.000000000000e+00
    X0000016  C0000045   3.919910233418e-02
    X0000016  OBJ        1.060121856000e+02
    X0000017  C0000031   1.000000000000e+00
    X0000017  C0000032   1.000000000000e+00
    X0000017  C0000045   5.352969282281e-04
    X0000017  OBJ        1.447686144000e+00
    X0000018  C0000033   1.000000000000e+00
    X0000018  C0000045   6.303429197674e-01
    X0000018  OBJ        1.704733696000e+03
    X0000019  C0000034   1.000000000000e+00
    X0000019  C0000035   1.000000000000e+00
    X0000019  C0000045   7.978619711337e-02
    X0000019  OBJ        2.157781335040e+02
    X0000020  C0000036   1.000000000000e+00
    X0000020  C0000037   1.000000000000e+00
    X0000020  C0000045   7.046379117915e-02
    X0000020  OBJ        2.287846242720e+02
    X0000021  C0000038   1.000000000000e+00
    X0000021  C0000039   1.000000000000e+00
    X0000021  C0000045   2.403139629183e-02
    X0000021  OBJ        7.802608800000e+01
    X0000022  C0000040   1.000000000000e+00
    X0000022  C0000041   1.000000000000e+00
    X0000022  C0000045   5.587312674774e-02
    X0000022  OBJ        1.814110778880e+02
    X0000023  C0000042   1.000000000000e+00
    X0000023  C0000043   1.000000000000e+00
    X0000023  C0000045   7.917561414180e-02
    X0000023  OBJ        2.570705156480e+02
    X0000024  C0000044   1.000000000000e+00
    X0000024  C0000045   3.899199068014e-01
    X0000024  OBJ        1.266007376000e+03
    MARK      'MARKER'                 'INTORG'
    X0000025  C0000000  -1.000000000000e+00
    X0000025  C0000001  -1.000000000000e+00
    X0000025  C0000003  -1.000000000000e+00
    X0000025  C0000005  -1.000000000000e+00
    X0000025  C0000007  -1.000000000000e+00
    X0000025  C0000010   1.000000000000e+00
    X0000025  C0000019   1.000000000000e+00
    X0000025  C0000028   1.000000000000e+00
    X0000025  C0000037   1.000000000000e+00
    X0000025  OBJ       -2.533292257578e+02
    MARK      'MARKER'                 'INTEND'
    MARK      'MARKER'                 'INTORG'
    X0000026  C0000002   1.000000000000e+00
    X0000026  C0000009  -1.000000000000e+00
    X0000026  C0000011  -1.000000000000e+00
    X0000026  C0000012  -1.000000000000e+00
    X0000026  C0000014  -1.000000000000e+00
    X0000026  C0000016  -1.000000000000e+00
    X0000026  C0000021   1.000000000000e+00
    X0000026  C0000030   1.000000000000e+00
    X0000026  C0000039   1.000000000000e+00
    X0000026  OBJ       -7.637098054710e+02
    MARK      'MARKER'                 'INTEND'
    MARK      'MARKER'                 'INTORG'
    X0000027  C0000004   1.000000000000e+00
    X0000027  C0000013   1.000000000000e+00
    X0000027  C0000018  -1.000000000000e+00
    X0000027  C0000020  -1.000000000000e+00
    X0000027  C0000022  -1.000000000000e+00
    X0000027  C0000023  -1.000000000000e+00
    X0000027  C0000025  -1.000000000000e+00
    X0000027  C0000032   1.000000000000e+00
    X0000027  C0000041   1.000000000000e+00
    X0000027  OBJ       -4.730000000000e+00
    MARK      'MARKER'                 'INTEND'
    MARK      'MARKER'                 'INTORG'
    X0000028  C0000006   1.000000000000e+00
    X0000028  C0000015   1.000000000000e+00
    X0000028  C0000024   1.000000000000e+00
    X0000028  C0000027  -1.000000000000e+00
    X0000028  C0000029  -1.000000000000e+00
    X0000028  C0000031  -1.000000000000e+00
    X0000028  C0000033  -1.000000000000e+00
    X0000028  C0000034  -1.000000000000e+00
    X0000028  C0000043   1.000000000000e+00
    X0000028  OBJ       -6.313713770235e+02
    MARK      'MARKER'                 'INTEND'
    MARK      'MARKER'                 'INTORG'
    X0000029  C0000008   1.000000000000e+00
    X0000029  C0000017   1.000000000000e+00
    X0000029  C0000026   1.000000000000e+00
    X0000029  C0000035   1.000000000000e+00
    X0000029  C0000036  -1.000000000000e+00
    X0000029  C0000038  -1.000000000000e+00
    X0000029  C0000040  -1.000000000000e+00
    X0000029  C0000042  -1.000000000000e+00
    X0000029  C0000044  -1.000000000000e+00
    X0000029  OBJ       -4.461771126485e+02
    MARK      'MARKER'                 'INTEND'
RHS
    RHS       C0000000   0.000000000000e+00
    RHS       C0000001   0.000000000000e+00
    RHS       C0000002   1.000000000000e+00
    RHS       C0000003   0.000000000000e+00
    RHS       C0000004   1.000000000000e+00
    RHS       C0000005   0.000000000000e+00
    RHS       C0000006   1.000000000000e+00
    RHS       C0000007   0.000000000000e+00
    RHS       C0000008   1.000000000000e+00
    RHS       C0000009   0.000000000000e+00
    RHS       C0000010   1.000000000000e+00
    RHS       C0000011   0.000000000000e+00
    RHS       C0000012   0.000000000000e+00
    RHS       C0000013   1.000000000000e+00
    RHS       C0000014   0.000000000000e+00
    RHS       C0000015   1.000000000000e+00
    RHS       C0000016   0.000000000000e+00
    RHS       C0000017   1.000000000000e+00
    RHS       C0000018   0.000000000000e+00
    RHS       C0000019   1.000000000000e+00
    RHS       C0000020   0.000000000000e+00
    RHS       C0000021   1.000000000000e+00
    RHS       C0000022   0.000000000000e+00
    RHS       C0000023   0.000000000000e+00
    RHS       C0000024   1.000000000000e+00
    RHS       C0000025   0.000000000000e+00
    RHS       C0000026   1.000000000000e+00
    RHS       C0000027   0.000000000000e+00
    RHS       C0000028   1.000000000000e+00
    RHS       C0000029   0.000000000000e+00
    RHS       C0000030   1.000000000000e+00
    RHS       C0000031   0.000000000000e+00
    RHS       C0000032   1.000000000000e+00
    RHS       C0000033   0.000000000000e+00
    RHS       C0000034   0.000000000000e+00
    RHS       C0000035   1.000000000000e+00
    RHS       C0000036   0.000000000000e+00
    RHS       C0000037   1.000000000000e+00
    RHS       C0000038   0.000000000000e+00
    RHS       C0000039   1.000000000000e+00
    RHS       C0000040   0.000000000000e+00
    RHS       C0000041   1.000000000000e+00
    RHS       C0000042   0.000000000000e+00
    RHS       C0000043   1.000000000000e+00
    RHS       C0000044   0.000000000000e+00
    RHS       C0000045   1.090000000000e+02
BOUNDS
 BV BND       X0000025
 BV BND       X0000026
 BV BND       X0000027
 BV BND       X0000028
 BV BND       X0000029
ENDATA
